%chk=dimer.chk
%mem=32GB
%nprocshared=32
#p CAM-B3LYP/cc-pVDZ TD=(Singlets,NStates=15) SCF=(Tight,XQC,MaxCycle=512) Integral=UltraFine NoSymm IOp(9/40=4)

dimer vertical excitations

0 1
S     15.4548000000   21.3161000000   -2.7127000000
C     14.7562000000   19.7321000000   -2.3304000000
C     14.6359000000   23.6164000000   -1.5457000000
H     14.7600000000   23.9918000000   -2.3878000000
C     14.1550000000   17.5281000000   -3.0860000000
C     14.0976000000   23.8656000000    0.7742000000
H     13.8706000000   24.4010000000    1.4981000000
N     14.8104000000   20.2726000000    0.0604000000
C     14.6072000000   21.6700000000   -0.1114000000
C     14.5518000000   19.3512000000   -0.9942000000
H     14.0492000000   16.9154000000   -3.7791000000
H     13.6424000000   16.2903000000   -1.5905000000
C     14.2803000000   24.4313000000   -0.4958000000
H     14.1641000000   25.3455000000   -0.6244000000
C     13.9297000000   17.1529000000   -1.7843000000
C     14.8104000000   22.2609000000   -1.3839000000
C     14.2599000000   22.5018000000    0.9385000000
H     14.1308000000   22.1315000000    1.7818000000
C     14.5456000000   18.8276000000   -3.3538000000
H     14.6674000000   19.0967000000   -4.2352000000
C     14.1268000000   18.0658000000   -0.7529000000
H     13.9682000000   17.7979000000    0.1223000000
C     15.9903000000   19.8385000000    2.1395000000
C     15.9917000000   19.5473000000    3.5076000000
H     16.7880000000   20.0498000000    1.7122000000
C     13.6259000000   19.1832000000    3.3830000000
C     14.8179000000   19.8133000000    1.4237000000
H     12.8333000000   18.9434000000    3.8048000000
H     12.8289000000   19.4527000000    1.5585000000
H     16.7845000000   19.5619000000    3.9952000000
C     13.6220000000   19.4773000000    2.0441000000
C     14.8106000000   19.2420000000    4.1150000000
H     14.4179000000   15.6180000000    7.4805000000
S     14.6444000000   21.7356000000    5.6399000000
S     15.3011000000   16.5494000000    5.1529000000
O     10.5628000000   15.3978000000   15.7273000000
O      9.2643000000   19.7626000000   15.6631000000
N      9.8283000000   17.5528000000   15.6517000000
N     14.6647000000   19.0768000000    5.5511000000
C     12.8889000000   20.9363000000    9.6531000000
C     13.4480000000   21.1183000000    8.3911000000
C     11.2364000000   16.6768000000   13.8526000000
C     10.7083000000   19.0684000000   13.9234000000
H     13.5288000000   21.9778000000    8.0426000000
C     10.5547000000   16.4696000000   15.1438000000
C     12.4933000000   17.0157000000   11.3271000000
C      9.8837000000   18.8612000000   15.1226000000
C     13.8883000000   20.0318000000    7.6488000000
C     14.2015000000   17.6094000000    7.4393000000
C     11.3036000000   17.9510000000   13.2641000000
C     11.9725000000   18.1554000000   12.0365000000
C     13.7580000000   18.7211000000    8.1684000000
C     13.0740000000   17.2117000000   10.0190000000
C     14.7126000000   17.7774000000    6.0686000000
C     11.5925000000   20.5414000000   12.2433000000
H     11.7414000000   21.4104000000   11.9478000000
C     11.8142000000   15.6070000000   13.1845000000
C     13.2026000000   18.5447000000    9.4675000000
H     11.8071000000   14.7661000000   13.5817000000
C     14.4197000000   20.2418000000    6.2887000000
C     12.0929000000   19.4801000000   11.5169000000
C     12.7567000000   19.6649000000   10.2125000000
H     12.5969000000   21.6764000000   10.1331000000
C     13.5356000000   16.1503000000    9.2448000000
H     13.4664000000   15.2858000000    9.5770000000
C     14.1054000000   16.3463000000    7.9669000000
C     12.4038000000   15.7666000000   11.9384000000
H     12.7452000000   15.0204000000   11.5015000000
C     10.8624000000   20.3258000000   13.4205000000
H     10.4776000000   21.0471000000   13.8618000000
H     12.9852000000   17.4140000000   17.5519000000
C     10.3306000000   20.7207000000   18.8051000000
H     10.0664000000   20.7958000000   17.9161000000
H      5.7062000000   18.3264000000   20.0476000000
C      9.2070000000   17.8334000000   18.0267000000
H      6.0905000000   16.8897000000   20.5434000000
C      6.5978000000   18.3487000000   14.0727000000
H     13.6413000000   14.2778000000   19.8318000000
C      7.0770000000   18.8836000000   11.7714000000
H      5.0236000000   17.0681000000   19.4087000000
C     11.4621000000   17.0829000000   18.7945000000
C      8.8953000000   17.3517000000   16.7403000000
C      7.7931000000   17.7326000000   11.6601000000
H      6.2065000000   18.5753000000   14.8852000000
H      8.2144000000   17.5274000000   10.8577000000
H     10.1698000000   22.6772000000   19.2295000000
C      6.4672000000   19.2084000000   12.9804000000
C     11.0602000000   20.5050000000   21.4325000000
H      5.9752000000   19.9950000000   13.0613000000
C      6.3299000000   13.9323000000   15.6263000000
C      7.9028000000   16.8560000000   12.7444000000
H      8.3778000000   16.0633000000   12.6547000000
C      7.3686000000   16.1531000000   15.0934000000
H      8.1449000000   15.5886000000   14.8961000000
C     10.6630000000   19.4857000000   19.3035000000
C      5.3230000000   13.0502000000   15.7164000000
C      3.8663000000   14.6717000000   14.7593000000
H      5.4675000000   12.2050000000   16.0740000000
C     11.8368000000   15.1645000000   20.1890000000
H      7.1761000000   13.6704000000   15.9080000000
C      7.6530000000   16.7832000000   16.4614000000
C      6.6812000000   16.7916000000   17.4821000000
H      5.8470000000   16.4137000000   17.3175000000
H      3.0235000000   14.9296000000   14.4612000000
C      4.0612000000   13.4227000000   15.2684000000
H      6.9943000000   19.4532000000   11.0400000000
C     11.0446000000   16.2091000000   19.7967000000
H     11.3007000000   20.4315000000   22.3277000000
H      3.3518000000   12.8221000000   15.3173000000
H     11.5534000000   14.5865000000   20.8621000000
C      4.9324000000   15.5594000000   14.6825000000
C      7.2991000000   17.1725000000   13.9613000000
C     10.6260000000   18.2647000000   18.3544000000
H     11.0169000000   18.5702000000   17.5084000000
C      6.9410000000   17.3489000000   18.7335000000
C     13.4754000000   15.8031000000   18.5771000000
H     14.2848000000   15.6604000000   18.1413000000
H     10.2186000000   16.3391000000   20.2018000000
C     10.7435000000   21.7260000000   20.9367000000
C      8.2079000000   17.8306000000   18.9801000000
H      8.3972000000   18.1677000000   19.8262000000
C      6.1675000000   15.2010000000   15.1385000000
H      4.8020000000   16.4059000000   14.3188000000
C     13.0867000000   14.9741000000   19.5634000000
C     11.0358000000   19.3624000000   20.6477000000
H     11.2636000000   18.5338000000   21.0038000000
C     10.3781000000   21.8437000000   19.5899000000
H     10.7674000000   22.4772000000   21.4852000000
C     12.6860000000   16.8392000000   18.2192000000
C      5.8391000000   17.4133000000   19.7808000000
N     14.5370000000   21.4124000000   19.3857000000
C     15.6889000000   25.4899000000   19.6058000000
S     14.3108000000   22.7331000000   22.1639000000
C     14.9382000000   23.4511000000   20.7087000000
H     15.3661000000   25.2040000000   21.5783000000
C     15.6126000000   24.8626000000   18.3385000000
C     14.3302000000   20.1130000000   22.8429000000
H     14.3136000000   17.3826000000   21.2274000000
H     14.1636000000   18.1752000000   23.3784000000
C     14.2615000000   18.7575000000   22.6600000000
C     14.5055000000   20.5414000000   20.4621000000
H     15.9706000000   26.3746000000   19.6748000000
H     14.5276000000   18.8064000000   19.4399000000
C     15.2614000000   23.5127000000   18.2828000000
C     14.3426000000   18.2983000000   21.3821000000
C     14.4129000000   21.0203000000   21.7983000000
C     14.4666000000   19.1608000000   20.2977000000
C     14.9055000000   22.7790000000   19.4573000000
H     15.7936000000   25.3372000000   17.5596000000
C     15.3348000000   24.7758000000   20.7538000000
H     15.2590000000   23.0783000000   17.4603000000
H     14.3220000000   20.4402000000   23.7133000000
C     13.5588000000   20.7711000000   17.2382000000
H     12.7257000000   21.0489000000   17.5457000000
H     16.6432000000   20.4104000000   18.2052000000
C     13.7028000000   20.2838000000   15.9391000000
C     14.9543000000   19.8777000000   15.5017000000
C     15.9079000000   20.3846000000   17.6359000000
H     12.9672000000   20.2308000000   15.3721000000
C     14.6719000000   20.8355000000   18.0707000000
C     16.0351000000   19.8945000000   16.3448000000
H     16.8578000000   19.5748000000   16.0490000000
S     14.6873000000   16.9863000000   15.1695000000
H     19.3196000000   19.3081000000    5.5618000000
C     15.3975000000   20.3790000000   13.1607000000
C     17.7464000000   16.9792000000    8.0332000000
C     18.2331000000   19.2420000000    7.2962000000
C     16.2761000000   15.6882000000   11.2306000000
C     19.0079000000   17.3825000000    5.9626000000
C     15.7794000000   16.1699000000   12.4475000000
H     15.5193000000   15.5722000000   13.1109000000
C     16.2917000000   20.7123000000   10.8647000000
C     18.9231000000   18.7239000000    6.1667000000
H     16.3575000000   14.7703000000   11.1011000000
S     15.1617000000   21.9509000000   13.4478000000
C     17.6699000000   18.3739000000    8.2373000000
C     19.7601000000   16.8532000000    4.7828000000
C     16.5624000000   17.9482000000   10.4272000000
C     15.1667000000   18.0070000000   13.9852000000
C     17.1860000000   16.0467000000    8.9505000000
C     17.7560000000   14.2208000000    7.4579000000
H     16.1748000000   21.6287000000   10.9774000000
C     18.3738000000   16.4696000000    6.8587000000
C     16.6508000000   16.5564000000   10.2152000000
C     18.3857000000   15.0945000000    6.5724000000
H     18.1567000000   20.1609000000    7.4095000000
C     16.8575000000   20.2362000000    9.6929000000
C     15.8925000000   19.8357000000   11.8854000000
H     16.7772000000   14.0936000000    9.2174000000
C     16.9989000000   18.9004000000    9.4410000000
C     18.9409000000   14.5596000000    5.3130000000
O     20.4323000000   17.5777000000    4.0797000000
N     19.6132000000   15.4894000000    4.4930000000
H     17.7205000000   13.3113000000    7.2636000000
C     15.6725000000   17.5113000000   12.6675000000
C     17.1779000000   14.6969000000    8.6324000000
O     18.8764000000   13.3930000000    5.0161000000
H     17.1506000000   20.8461000000    9.0563000000
C     16.0173000000   18.4523000000   11.6601000000
N     15.1601000000   19.3933000000   14.1472000000
H     17.8179000000   13.6256000000    2.5546000000
H     21.7706000000   11.2055000000    3.8726000000
C     22.6730000000   11.4259000000    3.8999000000
C     23.6108000000   10.4654000000    3.5898000000
C     16.9647000000   15.3886000000    2.0998000000
C     20.0674000000   15.0217000000    0.8325000000
H     21.2414000000   13.2637000000    4.9945000000
C     19.1607000000   19.4493000000    0.2174000000
H     18.5452000000   19.9432000000   -1.6474000000
H     23.3315000000    9.6072000000    3.3634000000
C     22.5779000000   15.7022000000    7.6885000000
H     21.8201000000   12.9148000000   -0.6393000000
H     22.3810000000   15.6256000000    8.5945000000
C     19.0525000000   18.4579000000    1.1745000000
C     19.5214000000   15.4250000000    2.0494000000
C     23.0367000000   12.6917000000    4.2499000000
C     24.3758000000   12.9886000000    4.3029000000
C     25.3501000000   12.0308000000    3.9848000000
H     26.2537000000   12.2497000000    4.0270000000
H     24.6444000000   13.8438000000    4.5527000000
H     19.4985000000   18.5585000000    1.9837000000
H     19.6614000000   20.2153000000    0.3813000000
C     14.5698000000   15.2542000000    2.0441000000
C     17.7978000000   18.1442000000   -1.2514000000
C     18.2995000000   17.3209000000    0.9518000000
H     15.8645000000   12.4652000000    2.9398000000
C     15.7210000000   15.9851000000    1.8718000000
H     23.6468000000   17.3906000000    7.8234000000
C     18.2268000000   16.2511000000    2.0414000000
H     18.2364000000   16.7469000000    2.8870000000
H     17.3896000000   18.0253000000   -2.0789000000
C     21.2479000000   14.2712000000    0.7715000000
C     21.8440000000   13.8819000000    1.9619000000
H     21.3299000000   14.2653000000   -1.2666000000
H     17.1990000000   16.3892000000   -0.4510000000
C     16.9985000000   14.0556000000    2.4524000000
C     23.0775000000   15.9431000000    4.9896000000
C     20.1784000000   15.0217000000    3.2265000000
H     13.7480000000   15.6626000000    1.8867000000
C     22.1439000000   14.7669000000    6.8057000000
H     21.6640000000   14.0375000000    7.1293000000
H     22.6134000000   13.3599000000    1.9263000000
C     18.5013000000   19.2756000000   -1.0022000000
H     13.8089000000   13.4638000000    2.5675000000
C     22.3925000000   14.8537000000    5.4191000000
C     14.5965000000   13.9407000000    2.4444000000
H     19.6377000000   15.2561000000    0.0423000000
H     23.2293000000   16.0474000000    4.0781000000
C     24.9626000000   10.7566000000    3.6057000000
H     25.5934000000   10.1168000000    3.3684000000
H     22.7489000000   14.1772000000   -0.6061000000
C     21.9573000000   13.7335000000    4.5150000000
C     23.5612000000   16.9148000000    5.8645000000
H     24.0407000000   17.6450000000    5.5450000000
H     15.6736000000   16.8732000000    1.6014000000
C     21.8404000000   13.8707000000   -0.5568000000
C     15.8245000000   13.3498000000    2.6565000000
C     21.3313000000   14.2432000000    3.2159000000
C     17.6882000000   17.1613000000   -0.2757000000
C     23.3118000000   16.7636000000    7.2219000000

